c --- [ banner ] -------------------------------------------------------------
c 
c CaDiCaL Radically Simplified CDCL SAT Solver
c Copyright (c) 2016-2021 A. Biere, M. Fleury, N. Froleyks
c 
c Version 1.5.2 ca9bff05c11bde5eae4912f9932871d1527e61d8
c g++ (GCC) 9.3.0 -Wall -Wextra -O3 -DNDEBUG
c Thu Jul 28 23:42:48 EDT 2022 Linux gra-login3 3.10.0-1160.66.1.el7.x86_64 x86_64
c 
c --- [ limit ] --------------------------------------------------------------
c 
c setting conflict limit to 200000 conflicts (due to '200000')
c 
c --- [ parsing input ] ------------------------------------------------------
c 
c reading DIMACS file from '23.cubes166.adj'
c opening file to read '23.cubes166.adj'
c found 'p cnf 5320 914894' header
c parsed 914894 clauses in 8.24 seconds process time
c closing file '23.cubes166.adj'
c after reading 637829998 bytes 608.3 MB
c 
c --- [ options ] ------------------------------------------------------------
c 
c all options are set to their default value
c 
c --- [ solving ] ------------------------------------------------------------
c 
c time measured in process time since initialization
c 
c  seconds   reductions  redundant  irredundant
c          MB    restarts       trail      variables
c           level   conflicts       glue        remaining
c 
c *  8.24 629  0 0   0    0    0  0% 0 914847 2060 39%
c {  8.67 652  0 0   0    0    0  0% 0 914847 2060 39%
c i  9.49 686 400 0   2   29   26 26% 3 914847 2057 39%
c i 10.31 697 233 0   9   69   52 23% 9 914847 2047 38%
c i 10.78 700 206 0  14   95   69 24% 19 914847 2044 38%
c i 11.03 701 167 0  21  129   83 22% 18 914847 2042 38%
c i 11.12 701 175 0  22  149   91 22% 16 914847 2041 38%
c i 11.34 701 150 0  27  196  110 22% 17 914847 2040 38%
c i 11.34 701 149 0  27  197  110 22% 17 914847 2039 38%
c i 11.35 701 148 0  27  198  110 22% 17 914847 2038 38%
c i 11.35 701 148 0  27  199  110 22% 17 914847 2037 38%
c i 11.35 701 147 0  27  200  110 22% 17 914847 2036 38%
c i 11.35 701 146 0  27  201  110 22% 17 914847 2035 38%
c i 11.35 701 146 0  27  202  110 22% 17 914847 2034 38%
c i 11.35 701 145 0  27  203  110 22% 16 914847 2033 38%
c i 11.35 701 144 0  27  205  111 22% 16 914847 2032 38%
c i 11.40 701 139 0  27  215  120 22% 17 914847 2031 38%
c i 11.44 701 136 0  27  221  124 22% 17 914847 2030 38%
c i 11.48 701 134 0  28  226  127 22% 17 914847 2029 38%
c i 11.67 702 131 0  31  237  135 23% 19 914847 2028 38%
c 
c  seconds    reductions  redundant   irredundant
c          MB     restarts       trail       variables
c            level   conflicts       glue         remaining
c 
c i 11.67 702 131 0  31  238  135 23% 19 914847 2027 38%
c i 11.87 703 118 0  42  278  170 23% 21 914847 2026 38%
c i 11.88 703 118 0  42  279  170 23% 21 914847 2025 38%
c i 11.89 703 116 0  43  285  174 23% 21 914847 2024 38%
c i 11.90 703 116 0  44  286  174 23% 21 914847 2023 38%
c i 11.91 703 114 0  44  292  178 23% 20 914847 2022 38%
c i 11.92 703 112 0  44  298  179 23% 20 914847 2021 38%
c i 11.94 703 111 0  44  301  181 23% 20 914847 2020 38%
c - 13.64 697 111 1  44  301  181 23% 20 181745 2020 38%
c i 13.69 663 111 1  44  302  181 23% 20 181745 2019 38%
c i 13.69 663 111 1  44  303  181 23% 20 181745 2018 38%
c i 13.69 663 110 1  44  304  181 23% 20 181745 2017 38%
c i 13.78 663 106 1  45  332  205 23% 20 181745 2016 38%
c i 13.90 663 84 1  45  451  284 24% 18 181745 2015 38%
c i 13.91 663 83 1  45  456  287 24% 18 181745 2014 38%
c i 13.93 663 83 1  45  460  290 24% 18 181745 2013 38%
c i 13.94 663 81 1  45  471  297 24% 18 181745 2012 38%
c i 13.95 663 80 1  45  479  304 24% 18 181745 2011 38%
c i 13.95 663 79 1  45  485  309 24% 18 181745 2010 38%
c i 13.98 663 79 1  45  495  318 24% 17 181745 2009 38%
c 
c  seconds   reductions  redundant   irredundant
c          MB    restarts       trail       variables
c           level   conflicts       glue         remaining
c 
c i 13.98 663 78 1  45  496  318 24% 17 181745 2008 38%
c i 13.99 663 78 1  45  501  322 24% 17 181745 2007 38%
c i 14.01 663 75 1  45  536  346 25% 17 181745 2006 38%
c i 14.03 663 71 1  45  571  370 25% 17 181745 2005 38%
c i 14.04 663 71 1  45  574  372 25% 17 181745 2004 38%
c i 14.07 663 66 1  45  643  428 25% 17 181745 2003 38%
c i 14.08 663 65 1  45  649  433 25% 17 181745 2002 38%
c i 14.10 663 65 1  45  664  446 25% 17 181745 2001 38%
c i 14.21 663 62 1  57  767  516 25% 17 181745 2000 38%
c i 14.23 663 60 1  57  793  529 25% 17 181745 1999 38%
c i 14.23 663 60 1  57  795  530 25% 17 181745 1998 38%
c i 14.24 663 60 1  57  797  531 25% 17 181745 1997 38%
c i 14.25 663 60 1  57  806  539 25% 17 181745 1996 38%
c i 14.43 663 59 1  63  859  585 25% 17 181745 1995 38%
c i 14.45 663 59 1  64  865  590 25% 17 181745 1994 37%
c i 14.45 663 60 1  64  868  592 25% 17 181745 1993 37%
c i 14.72 663 57 1  78  971  637 25% 17 181745 1992 37%
c i 14.72 663 57 1  78  972  637 25% 17 181745 1991 37%
c i 14.72 663 57 1  78  973  637 25% 17 181745 1990 37%
c i 14.72 663 57 1  78  974  637 25% 17 181745 1989 37%
c 
c  seconds   reductions  redundant   irredundant
c          MB    restarts       trail       variables
c           level   conflicts       glue         remaining
c 
c i 14.72 663 57 1  78  976  638 25% 17 181745 1988 37%
c i 14.75 663 57 1  78  982  642 25% 17 181745 1987 37%
c } 14.84 663 57 1  81 1005  661 25% 18 181745 1987 37%
c [ 14.84 663  0 1  81 1005  661  0% 0 181745 1987 37%
c O 14.84 663  1 1  81 1006  661  9% 0 181745 1987 37%
c i 14.84 663  1 1  81 1006  661  9% 0 181745 1977 37%
c i 14.93 663  9 1  81 1022  671 17% 7 181745 1976 37%
c i 14.99 663 13 1  81 1031  679 22% 10 181745 1975 37%
c i 14.99 663 13 1  81 1032  679 22% 10 181745 1974 37%
c i 14.99 663 12 1  81 1033  679 23% 9 181745 1973 37%
c i 14.99 663 12 1  81 1034  679 23% 9 181745 1972 37%
c i 14.99 663 12 1  81 1036  679 23% 10 181745 1971 37%
c i 15.01 663 21 1  81 1057  697 26% 16 181745 1970 37%
c - 15.31 692 21 2  81 1057  622 26% 16 181405 1970 37%
c i 15.35 692 22 2  81 1066  628 27% 18 181405 1969 37%
c i 15.35 692 22 2  81 1067  628 27% 18 181405 1968 37%
c i 15.35 692 22 2  81 1069  629 27% 18 181405 1967 37%
c i 15.37 692 22 2  81 1084  637 27% 17 181405 1966 37%
c i 15.45 692 24 2  81 1166  702 29% 20 181405 1965 37%
c i 15.47 692 25 2  81 1220  752 30% 20 181405 1964 37%
c 
c  seconds   reductions  redundant   irredundant
c          MB    restarts       trail       variables
c           level   conflicts       glue         remaining
c 
c i 15.49 692 27 2  81 1245  775 30% 21 181405 1963 37%
c i 15.52 692 28 2  81 1302  816 30% 23 181405 1962 37%
c i 15.52 692 28 2  81 1304  817 30% 23 181405 1961 37%
c i 15.54 692 28 2  81 1381  877 30% 23 181405 1960 37%
c i 15.55 692 28 2  81 1382  877 30% 23 181405 1959 37%
c i 15.56 692 28 2  81 1447  928 30% 23 181405 1958 37%
c i 15.56 692 28 2  81 1452  932 30% 23 181405 1957 37%
c i 15.58 692 28 2  81 1508  975 30% 23 181405 1956 37%
c i 15.58 692 27 2  81 1530  992 30% 22 181405 1955 37%
c i 15.60 692 27 2  81 1631 1070 30% 22 181405 1954 37%
c - 15.93 691 26 3  82 2191 1215 30% 21 181358 1954 37%
c i 16.23 690 26 3  82 2692 1485 55% 22 181358 1953 37%
c ] 16.29 690 26 3  82 3010 1656 56% 22 181358 1953 37%
c { 16.29 690 57 3  82 3010 1656 68% 18 181358 1953 37%
c F 16.30 690 57 3  83 3011 1657 68% 18 181358 1953 37%
c i 16.40 690 57 3  86 3024 1669 67% 18 181358 1952 37%
c i 16.40 690 57 3  86 3025 1669 67% 18 181358 1951 37%
c i 16.60 690 51 3  92 3241 1820 64% 17 181358 1950 37%
c i 16.78 690 50 3  98 3328 1888 63% 17 181358 1949 37%
c i 16.81 690 50 3  98 3339 1894 63% 17 181358 1948 37%
c 
c  seconds   reductions  redundant   irredundant
c          MB    restarts       trail       variables
c           level   conflicts       glue         remaining
c 
c i 17.17 690 51 3 141 3534 2052 61% 20 181358 1947 37%
c i 17.18 690 51 3 141 3535 2052 61% 20 181358 1946 37%
c i 17.34 690 52 3 156 3598 2096 60% 20 181358 1945 37%
c - 17.59 625 50 4 157 3702 1483 59% 20 181332 1945 37%
c i 18.05 625 49 4 170 3921 1656 58% 20 181332 1944 37%
c i 18.91 625 47 4 229 4504 2091 55% 20 181332 1943 37%
c i 19.09 626 48 4 239 4542 2125 54% 21 181332 1942 37%
c d 20.08 626 46 4 281 5002 2457 53% 21 181308 1934 36%
c 2 20.12 626 46 4 281 5002 3334 53% 21 181298 1934 36%
c p 22.91 625 46 4 281 5002 5558 53% 21 181298 1885 35%
c d 23.15 625 46 4 281 5002 5456 53% 21 181146 1881 35%
c - 23.69 686 42 5 281 5590 2128 53% 20 181146 1881 35%
c # 23.87 686 40 5 281 6013 2430 53% 20 181146 1881 35%
c } 25.05 686 39 5 358 7015 3183 52% 20 181146 1881 35%
c [ 25.05 686 26 5 358 7015 3183 56% 22 181146 1881 35%
c - 25.70 628 23 6 359 7855 2718 52% 19 181146 1881 35%
c I 27.00 628 21 6 360 10014 4107 51% 17 181146 1881 35%
c - 27.60 628 25 7 361 10497 3286 51% 20 181146 1881 35%
c - 29.78 628 28 8 363 13517 3868 51% 23 181146 1881 35%
c p 31.52 628 28 8 363 15003 8461 51% 23 181146 1881 35%
c 
c  seconds   reductions   redundant   irredundant
c          MB    restarts        trail       variables
c           level    conflicts       glue         remaining
c 
c B 31.60 628 28 8 363 15015 8469 51% 23 181146 1881 35%
c ] 31.60 628 28 8 363 15015 8469 51% 23 181146 1881 35%
c { 31.60 628 39 8 363 15015 8469 52% 20 181146 1881 35%
c - 34.47 628 38 9 499 16916 4530 51% 20 181146 1881 35%
c s 34.77 628 36 9 500 17590 4873 51% 20 178824 1881 35%
c v 36.76 627 36 9 500 17590 4873 51% 20 178789 1881 35%
c t 36.81 627 36 9 500 17590 4863 51% 20 178773 1881 35%
c e 37.31 628 36 9 500 17590 4560 51% 20 176577 764 14%
c s 37.40 628 36 9 500 17590 4560 51% 20 176352 764 14%
c } 38.41 628 33 9 500 18880 5398 73% 19 176352 764 14%
c 1 38.41 628 33 9 500 18880 5398 73% 19 176352 764 14%
c 
c --- [ writing output ] -----------------------------------------------------
c 
c writing simplified CNF to DIMACS file 'simp/23.cubes166.adj.simp1'
c * 38.41 628 33 9 500 18880 5398 73% 19 176352 764 14%
c opening file to write 'simp/23.cubes166.adj.simp1'
c writing 'p cnf 5320 176352' header
c closing file 'simp/23.cubes166.adj.simp1'
c after writing 65252624 bytes 62.2 MB
c wrote 176352 clauses in 0.51 seconds process time
c 
c --- [ writing extension ] --------------------------------------------------
c 
c writing extension stack to 'simp/23.cubes166.adj.ext1'
c opening file to write 'simp/23.cubes166.adj.ext1'
c closing file 'simp/23.cubes166.adj.ext1'
c after writing 76807 bytes 0.1 MB
c wrote 3346 witnesses in 0.00 seconds process time
c 
c --- [ result ] -------------------------------------------------------------
c 
s SATISFIABLE
c 
c --- [ run-time profiling ] -------------------------------------------------
c 
c process time taken by individual solving procedures
c (percentage relative to process time for solving)
c 
c        22.91   75.95% search
c        15.28   50.65% unstable
c         8.24   27.32% parse
c         7.26   24.05% simplify
c         7.20   23.88% stable
c         3.54   11.73% probe
c         2.01    6.67% vivify
c         0.93    3.08% elim
c         0.43    1.42% lucky
c         0.18    0.58% subsume
c         0.05    0.18% ternary
c   =================================
c        30.16   77.51% solve
c 
c last line shows process time for solving
c (percentage relative to total process time)
c 
c --- [ statistics ] ---------------------------------------------------------
c 
c chronological:              4178        22.13 %  of conflicts
c conflicts:                 18880       625.90    per second
c decisions:                 59048      1957.52    per second
c eliminated:                 1117        21.00 %  of all variables
c fixed:                       590        11.09 %  of all variables
c learned:                   18476        97.86 %  per conflict
c learned_lits:            2982000       100.00 %  learned literals
c minimized:                     0         0.00 %  learned literals
c shrunken:                1783224        59.80 %  learned literals
c minishrunken:             245005         8.22 %  learned literals
c propagations:            2597608         0.09 M  per second
c reduced:                    7420        39.30 %  per conflict
c rephased:                      5      3776.00    interval
c restarts:                    500        37.76    interval
c stabilizing:                   2        52.99 %  of conflicts
c substituted:                  12         0.23 %  of all variables
c subsumed:                   7985         0.40 %  of all clauses
c strengthened:               9375         0.46 %  of all clauses
c ternary:                    1898         0.64 %  of resolved
c vivified:                     49         0.00 %  of all clauses
c weakened:                   2756         3.08    average size
c 
c seconds are measured in process time for solving
c 
c --- [ resources ] ----------------------------------------------------------
c 
c total process time since initialization:        38.92    seconds
c total real time since initialization:           40.18    seconds
c maximum resident set size of process:          757.07    MB
c 
c --- [ shutting down ] ------------------------------------------------------
c 
c exit 10
WARNING! DIMACS header mismatch: wrong number of variables.
============================[ Problem Statistics ]=============================
|                                                                             |
|  Number of variables:          5271                                         |
|  Number of clauses:          176352                                         |
|  Parse time:                   0.86 s                                       |
|  Simplification time:          0.03 s                                       |
|                                                                             |
============================[ Search Statistics ]====================================================
| Conflicts |          ORIGINAL         |          LEARNT          | Num Sols |      SUBGRAPHS      |
|           |    Vars  Clauses Literals |    Limit  Clauses Lit/Cl |          | Canonical Noncanon. |
=====================================================================================================
|       101 |    5195   176353 14834051 |     2000      101     93 |        0 |        20         1 |
|       414 |    5195   176516 14836107 |     2000      414     34 |        0 |       118       164 |
|       734 |    5195   176611 14837144 |     2000      734     24 |        0 |       198       259 |
|      1471 |    5195   177011 14841872 |     2000     1471     17 |        0 |       403       659 |
|      2758 |    5195   177792 14853328 |     3601     1759     12 |        0 |       786      1440 |
|      4669 |    5195   178944 14869298 |     5004     1873      9 |        0 |      1192      2592 |
|      7242 |    5195   180378 14887437 |     5004     4446     20 |        0 |      1631      4026 |
|     11980 |    5195   183408 14921320 |     7551     3531      8 |        0 |      2537      7056 |
=====================================================================================================
Number of solutions   : 0
Canonical subgraphs   : 3554           (204 /sec)
          order  3    : 1              (125000 /sec)
          order  4    : 1              (250000 /sec)
          order  5    : 1              (142857 /sec)
          order  6    : 1              (32258 /sec)
          order  7    : 2              (7246 /sec)
          order  8    : 6              (2336 /sec)
          order  9    : 23             (782 /sec)
          order 10    : 110            (396 /sec)
          order 11    : 508            (280 /sec)
          order 12    : 2643           (207 /sec)
          order 13    : 211            (157 /sec)
          order 14    : 18             (65 /sec)
          order 15    : 19             (34 /sec)
          order 16    : 7              (26 /sec)
          order 17    : 3              (36 /sec)
          order 18    : 0              (-nan /sec)
          order 19    : 0              (-nan /sec)
          order 20    : 0              (-nan /sec)
          order 21    : 0              (-nan /sec)
Noncanonical subgraphs: 10209          (1202 /sec)
          order  3    : 0              (-nan /sec)
          order  4    : 0              (-nan /sec)
          order  5    : 0              (-nan /sec)
          order  6    : 0              (-nan /sec)
          order  7    : 0              (-nan /sec)
          order  8    : 0              (-nan /sec)
          order  9    : 0              (-nan /sec)
          order 10    : 0              (-nan /sec)
          order 11    : 0              (-nan /sec)
          order 12    : 0              (-nan /sec)
          order 13    : 9446           (1200 /sec)
          order 14    : 666            (1201 /sec)
          order 15    : 84             (1467 /sec)
          order 16    : 13             (1170 /sec)
          order 17    : 0              (-nan /sec)
          order 18    : 0              (-nan /sec)
          order 19    : 0              (-nan /sec)
          order 20    : 0              (-nan /sec)
Canonicity checking   : 17.4512 s
Noncanonicity checking: 8.49473 s
Total canonicity time : 25.9459 s
database reductions   : 5
restarts              : 63
conflicts             : 16980          (526 /sec)
decisions             : 39203          (0.00 % random) (1213 /sec)
propagations          : 900481         (27872 /sec)
conflict literals     : 257338         (58.03 % deleted)
actual reward         : 0.094836
Memory used           : 95.00 MB
CPU time              : 32.3078 s

UNSATISFIABLE
